\* Schedule_Tasks *\
Maximize
OBJ: 4 Block_(0,_13) + 4 Block_(0,_14) + 4 Block_(0,_15) + 4 Block_(0,_19)
 + 4 Block_(0,_20) + 4 Block_(0,_21) + 4 Block_(0,_24) + 4 Block_(0,_25)
 + 4 Block_(0,_26) + 4 Block_(0,_31) + 4 Block_(0,_32) + 4 Block_(0,_33)
 + 4 Block_(0,_38) + 4 Block_(0,_39) + 4 Block_(0,_40) + 4 Block_(0,_41)
 + 4 Block_(0,_42) + 5 Block_(1,_13) + 5 Block_(1,_14) + 5 Block_(1,_15)
 + 5 Block_(1,_19) + 5 Block_(1,_20) + 5 Block_(1,_21) + 5 Block_(1,_24)
 + 5 Block_(1,_25) + 5 Block_(1,_26) + 5 Block_(1,_31) + 5 Block_(1,_32)
 + 5 Block_(1,_33) + 5 Block_(1,_38) + 5 Block_(1,_39) + 5 Block_(1,_40)
 + 5 Block_(1,_41) + 5 Block_(1,_42) + Block_(2,_13) + Block_(2,_14)
 + Block_(2,_15) + Block_(2,_19) + Block_(2,_20) + Block_(2,_21)
 + Block_(2,_24) + Block_(2,_25) + Block_(2,_26) + Block_(2,_31)
 + Block_(2,_32) + Block_(2,_33) + Block_(2,_38) + Block_(2,_39)
 + Block_(2,_40) + Block_(2,_41) + Block_(2,_42) + 3 Block_(3,_13)
 + 3 Block_(3,_14) + 3 Block_(3,_15) + 3 Block_(3,_19) + 3 Block_(3,_20)
 + 3 Block_(3,_21) + 3 Block_(3,_24) + 3 Block_(3,_25) + 3 Block_(3,_26)
 + 3 Block_(3,_31) + 3 Block_(3,_32) + 3 Block_(3,_33) + 3 Block_(3,_38)
 + 3 Block_(3,_39) + 3 Block_(3,_40) + 3 Block_(3,_41) + 3 Block_(3,_42)
 + 3 Block_(4,_13) + 3 Block_(4,_14) + 3 Block_(4,_15) + 3 Block_(4,_19)
 + 3 Block_(4,_20) + 3 Block_(4,_21) + 3 Block_(4,_24) + 3 Block_(4,_25)
 + 3 Block_(4,_26) + 3 Block_(4,_31) + 3 Block_(4,_32) + 3 Block_(4,_33)
 + 3 Block_(4,_38) + 3 Block_(4,_39) + 3 Block_(4,_40) + 3 Block_(4,_41)
 + 3 Block_(4,_42) + 2 Block_(5,_13) + 2 Block_(5,_14) + 2 Block_(5,_15)
 + 2 Block_(5,_19) + 2 Block_(5,_20) + 2 Block_(5,_21) + 2 Block_(5,_24)
 + 2 Block_(5,_25) + 2 Block_(5,_26) + 2 Block_(5,_31) + 2 Block_(5,_32)
 + 2 Block_(5,_33) + 2 Block_(5,_38) + 2 Block_(5,_39) + 2 Block_(5,_40)
 + 2 Block_(5,_41) + 2 Block_(5,_42) + 2 Block_(6,_13) + 2 Block_(6,_14)
 + 2 Block_(6,_15) + 2 Block_(6,_19) + 2 Block_(6,_20) + 2 Block_(6,_21)
 + 2 Block_(6,_24) + 2 Block_(6,_25) + 2 Block_(6,_26) + 2 Block_(6,_31)
 + 2 Block_(6,_32) + 2 Block_(6,_33) + 2 Block_(6,_38) + 2 Block_(6,_39)
 + 2 Block_(6,_40) + 2 Block_(6,_41) + 2 Block_(6,_42) + Block_(7,_13)
 + Block_(7,_14) + Block_(7,_15) + Block_(7,_19) + Block_(7,_20)
 + Block_(7,_21) + Block_(7,_24) + Block_(7,_25) + Block_(7,_26)
 + Block_(7,_31) + Block_(7,_32) + Block_(7,_33) + Block_(7,_38)
 + Block_(7,_39) + Block_(7,_40) + Block_(7,_41) + Block_(7,_42)
 + 2 Block_(8,_13) + 2 Block_(8,_14) + 2 Block_(8,_15) + 2 Block_(8,_19)
 + 2 Block_(8,_20) + 2 Block_(8,_21) + 2 Block_(8,_24) + 2 Block_(8,_25)
 + 2 Block_(8,_26) + 2 Block_(8,_31) + 2 Block_(8,_32) + 2 Block_(8,_33)
 + 2 Block_(8,_38) + 2 Block_(8,_39) + 2 Block_(8,_40) + 2 Block_(8,_41)
 + 2 Block_(8,_42)
Subject To
_C1: Block_(0,_0) + Block_(0,_1) + Block_(0,_10) + Block_(0,_11)
 + Block_(0,_12) + Block_(0,_13) + Block_(0,_14) + Block_(0,_15)
 + Block_(0,_16) + Block_(0,_17) + Block_(0,_18) + Block_(0,_19)
 + Block_(0,_2) + Block_(0,_20) + Block_(0,_21) + Block_(0,_22)
 + Block_(0,_23) + Block_(0,_24) + Block_(0,_25) + Block_(0,_26)
 + Block_(0,_27) + Block_(0,_28) + Block_(0,_29) + Block_(0,_3)
 + Block_(0,_30) + Block_(0,_31) + Block_(0,_32) + Block_(0,_33)
 + Block_(0,_34) + Block_(0,_35) + Block_(0,_36) + Block_(0,_37)
 + Block_(0,_38) + Block_(0,_39) + Block_(0,_4) + Block_(0,_40)
 + Block_(0,_41) + Block_(0,_42) + Block_(0,_43) + Block_(0,_44)
 + Block_(0,_45) + Block_(0,_46) + Block_(0,_47) + Block_(0,_5) + Block_(0,_6)
 + Block_(0,_7) + Block_(0,_8) + Block_(0,_9) + Block_(1,_0) + Block_(1,_1)
 + Block_(1,_10) + Block_(1,_11) + Block_(1,_12) + Block_(1,_13)
 + Block_(1,_14) + Block_(1,_15) + Block_(1,_16) + Block_(1,_17)
 + Block_(1,_18) + Block_(1,_19) + Block_(1,_2) + Block_(1,_20)
 + Block_(1,_21) + Block_(1,_22) + Block_(1,_23) + Block_(1,_24)
 + Block_(1,_25) + Block_(1,_26) + Block_(1,_27) + Block_(1,_28)
 + Block_(1,_29) + Block_(1,_3) + Block_(1,_30) + Block_(1,_31)
 + Block_(1,_32) + Block_(1,_33) + Block_(1,_34) + Block_(1,_35)
 + Block_(1,_36) + Block_(1,_37) + Block_(1,_38) + Block_(1,_39)
 + Block_(1,_4) + Block_(1,_40) + Block_(1,_41) + Block_(1,_42)
 + Block_(1,_43) + Block_(1,_44) + Block_(1,_45) + Block_(1,_46)
 + Block_(1,_47) + Block_(1,_5) + Block_(1,_6) + Block_(1,_7) + Block_(1,_8)
 + Block_(1,_9) + Block_(2,_0) + Block_(2,_1) + Block_(2,_10) + Block_(2,_11)
 + Block_(2,_12) + Block_(2,_13) + Block_(2,_14) + Block_(2,_15)
 + Block_(2,_16) + Block_(2,_17) + Block_(2,_18) + Block_(2,_19)
 + Block_(2,_2) + Block_(2,_20) + Block_(2,_21) + Block_(2,_22)
 + Block_(2,_23) + Block_(2,_24) + Block_(2,_25) + Block_(2,_26)
 + Block_(2,_27) + Block_(2,_28) + Block_(2,_29) + Block_(2,_3)
 + Block_(2,_30) + Block_(2,_31) + Block_(2,_32) + Block_(2,_33)
 + Block_(2,_34) + Block_(2,_35) + Block_(2,_36) + Block_(2,_37)
 + Block_(2,_38) + Block_(2,_39) + Block_(2,_4) + Block_(2,_40)
 + Block_(2,_41) + Block_(2,_42) + Block_(2,_43) + Block_(2,_44)
 + Block_(2,_45) + Block_(2,_46) + Block_(2,_47) + Block_(2,_5) + Block_(2,_6)
 + Block_(2,_7) + Block_(2,_8) + Block_(2,_9) + Block_(3,_0) + Block_(3,_1)
 + Block_(3,_10) + Block_(3,_11) + Block_(3,_12) + Block_(3,_13)
 + Block_(3,_14) + Block_(3,_15) + Block_(3,_16) + Block_(3,_17)
 + Block_(3,_18) + Block_(3,_19) + Block_(3,_2) + Block_(3,_20)
 + Block_(3,_21) + Block_(3,_22) + Block_(3,_23) + Block_(3,_24)
 + Block_(3,_25) + Block_(3,_26) + Block_(3,_27) + Block_(3,_28)
 + Block_(3,_29) + Block_(3,_3) + Block_(3,_30) + Block_(3,_31)
 + Block_(3,_32) + Block_(3,_33) + Block_(3,_34) + Block_(3,_35)
 + Block_(3,_36) + Block_(3,_37) + Block_(3,_38) + Block_(3,_39)
 + Block_(3,_4) + Block_(3,_40) + Block_(3,_41) + Block_(3,_42)
 + Block_(3,_43) + Block_(3,_44) + Block_(3,_45) + Block_(3,_46)
 + Block_(3,_47) + Block_(3,_5) + Block_(3,_6) + Block_(3,_7) + Block_(3,_8)
 + Block_(3,_9) + Block_(4,_0) + Block_(4,_1) + Block_(4,_10) + Block_(4,_11)
 + Block_(4,_12) + Block_(4,_13) + Block_(4,_14) + Block_(4,_15)
 + Block_(4,_16) + Block_(4,_17) + Block_(4,_18) + Block_(4,_19)
 + Block_(4,_2) + Block_(4,_20) + Block_(4,_21) + Block_(4,_22)
 + Block_(4,_23) + Block_(4,_24) + Block_(4,_25) + Block_(4,_26)
 + Block_(4,_27) + Block_(4,_28) + Block_(4,_29) + Block_(4,_3)
 + Block_(4,_30) + Block_(4,_31) + Block_(4,_32) + Block_(4,_33)
 + Block_(4,_34) + Block_(4,_35) + Block_(4,_36) + Block_(4,_37)
 + Block_(4,_38) + Block_(4,_39) + Block_(4,_4) + Block_(4,_40)
 + Block_(4,_41) + Block_(4,_42) + Block_(4,_43) + Block_(4,_44)
 + Block_(4,_45) + Block_(4,_46) + Block_(4,_47) + Block_(4,_5) + Block_(4,_6)
 + Block_(4,_7) + Block_(4,_8) + Block_(4,_9) + Block_(5,_0) + Block_(5,_1)
 + Block_(5,_10) + Block_(5,_11) + Block_(5,_12) + Block_(5,_13)
 + Block_(5,_14) + Block_(5,_15) + Block_(5,_16) + Block_(5,_17)
 + Block_(5,_18) + Block_(5,_19) + Block_(5,_2) + Block_(5,_20)
 + Block_(5,_21) + Block_(5,_22) + Block_(5,_23) + Block_(5,_24)
 + Block_(5,_25) + Block_(5,_26) + Block_(5,_27) + Block_(5,_28)
 + Block_(5,_29) + Block_(5,_3) + Block_(5,_30) + Block_(5,_31)
 + Block_(5,_32) + Block_(5,_33) + Block_(5,_34) + Block_(5,_35)
 + Block_(5,_36) + Block_(5,_37) + Block_(5,_38) + Block_(5,_39)
 + Block_(5,_4) + Block_(5,_40) + Block_(5,_41) + Block_(5,_42)
 + Block_(5,_43) + Block_(5,_44) + Block_(5,_45) + Block_(5,_46)
 + Block_(5,_47) + Block_(5,_5) + Block_(5,_6) + Block_(5,_7) + Block_(5,_8)
 + Block_(5,_9) + Block_(6,_0) + Block_(6,_1) + Block_(6,_10) + Block_(6,_11)
 + Block_(6,_12) + Block_(6,_13) + Block_(6,_14) + Block_(6,_15)
 + Block_(6,_16) + Block_(6,_17) + Block_(6,_18) + Block_(6,_19)
 + Block_(6,_2) + Block_(6,_20) + Block_(6,_21) + Block_(6,_22)
 + Block_(6,_23) + Block_(6,_24) + Block_(6,_25) + Block_(6,_26)
 + Block_(6,_27) + Block_(6,_28) + Block_(6,_29) + Block_(6,_3)
 + Block_(6,_30) + Block_(6,_31) + Block_(6,_32) + Block_(6,_33)
 + Block_(6,_34) + Block_(6,_35) + Block_(6,_36) + Block_(6,_37)
 + Block_(6,_38) + Block_(6,_39) + Block_(6,_4) + Block_(6,_40)
 + Block_(6,_41) + Block_(6,_42) + Block_(6,_43) + Block_(6,_44)
 + Block_(6,_45) + Block_(6,_46) + Block_(6,_47) + Block_(6,_5) + Block_(6,_6)
 + Block_(6,_7) + Block_(6,_8) + Block_(6,_9) + Block_(7,_0) + Block_(7,_1)
 + Block_(7,_10) + Block_(7,_11) + Block_(7,_12) + Block_(7,_13)
 + Block_(7,_14) + Block_(7,_15) + Block_(7,_16) + Block_(7,_17)
 + Block_(7,_18) + Block_(7,_19) + Block_(7,_2) + Block_(7,_20)
 + Block_(7,_21) + Block_(7,_22) + Block_(7,_23) + Block_(7,_24)
 + Block_(7,_25) + Block_(7,_26) + Block_(7,_27) + Block_(7,_28)
 + Block_(7,_29) + Block_(7,_3) + Block_(7,_30) + Block_(7,_31)
 + Block_(7,_32) + Block_(7,_33) + Block_(7,_34) + Block_(7,_35)
 + Block_(7,_36) + Block_(7,_37) + Block_(7,_38) + Block_(7,_39)
 + Block_(7,_4) + Block_(7,_40) + Block_(7,_41) + Block_(7,_42)
 + Block_(7,_43) + Block_(7,_44) + Block_(7,_45) + Block_(7,_46)
 + Block_(7,_47) + Block_(7,_5) + Block_(7,_6) + Block_(7,_7) + Block_(7,_8)
 + Block_(7,_9) + Block_(8,_0) + Block_(8,_1) + Block_(8,_10) + Block_(8,_11)
 + Block_(8,_12) + Block_(8,_13) + Block_(8,_14) + Block_(8,_15)
 + Block_(8,_16) + Block_(8,_17) + Block_(8,_18) + Block_(8,_19)
 + Block_(8,_2) + Block_(8,_20) + Block_(8,_21) + Block_(8,_22)
 + Block_(8,_23) + Block_(8,_24) + Block_(8,_25) + Block_(8,_26)
 + Block_(8,_27) + Block_(8,_28) + Block_(8,_29) + Block_(8,_3)
 + Block_(8,_30) + Block_(8,_31) + Block_(8,_32) + Block_(8,_33)
 + Block_(8,_34) + Block_(8,_35) + Block_(8,_36) + Block_(8,_37)
 + Block_(8,_38) + Block_(8,_39) + Block_(8,_4) + Block_(8,_40)
 + Block_(8,_41) + Block_(8,_42) + Block_(8,_43) + Block_(8,_44)
 + Block_(8,_45) + Block_(8,_46) + Block_(8,_47) + Block_(8,_5) + Block_(8,_6)
 + Block_(8,_7) + Block_(8,_8) + Block_(8,_9) <= 17
_C10: Block_(8,_0) + Block_(8,_1) + Block_(8,_10) + Block_(8,_11)
 + Block_(8,_12) + Block_(8,_13) + Block_(8,_14) + Block_(8,_15)
 + Block_(8,_16) + Block_(8,_17) + Block_(8,_18) + Block_(8,_19)
 + Block_(8,_2) + Block_(8,_20) + Block_(8,_21) + Block_(8,_22)
 + Block_(8,_23) + Block_(8,_24) + Block_(8,_25) + Block_(8,_26)
 + Block_(8,_27) + Block_(8,_28) + Block_(8,_29) + Block_(8,_3)
 + Block_(8,_30) + Block_(8,_31) + Block_(8,_32) + Block_(8,_33)
 + Block_(8,_34) + Block_(8,_35) + Block_(8,_36) + Block_(8,_37)
 + Block_(8,_38) + Block_(8,_39) + Block_(8,_4) + Block_(8,_40)
 + Block_(8,_41) + Block_(8,_42) + Block_(8,_43) + Block_(8,_44)
 + Block_(8,_45) + Block_(8,_46) + Block_(8,_47) + Block_(8,_5) + Block_(8,_6)
 + Block_(8,_7) + Block_(8,_8) + Block_(8,_9) <= 1
_C11: Block_(0,_0) + Block_(1,_0) + Block_(2,_0) + Block_(3,_0) + Block_(4,_0)
 + Block_(5,_0) + Block_(6,_0) + Block_(7,_0) + Block_(8,_0) <= 1
_C12: Block_(0,_1) + Block_(1,_1) + Block_(2,_1) + Block_(3,_1) + Block_(4,_1)
 + Block_(5,_1) + Block_(6,_1) + Block_(7,_1) + Block_(8,_1) <= 1
_C13: Block_(0,_2) + Block_(1,_2) + Block_(2,_2) + Block_(3,_2) + Block_(4,_2)
 + Block_(5,_2) + Block_(6,_2) + Block_(7,_2) + Block_(8,_2) <= 1
_C14: Block_(0,_3) + Block_(1,_3) + Block_(2,_3) + Block_(3,_3) + Block_(4,_3)
 + Block_(5,_3) + Block_(6,_3) + Block_(7,_3) + Block_(8,_3) <= 1
_C15: Block_(0,_4) + Block_(1,_4) + Block_(2,_4) + Block_(3,_4) + Block_(4,_4)
 + Block_(5,_4) + Block_(6,_4) + Block_(7,_4) + Block_(8,_4) <= 1
_C16: Block_(0,_5) + Block_(1,_5) + Block_(2,_5) + Block_(3,_5) + Block_(4,_5)
 + Block_(5,_5) + Block_(6,_5) + Block_(7,_5) + Block_(8,_5) <= 1
_C17: Block_(0,_6) + Block_(1,_6) + Block_(2,_6) + Block_(3,_6) + Block_(4,_6)
 + Block_(5,_6) + Block_(6,_6) + Block_(7,_6) + Block_(8,_6) <= 1
_C18: Block_(0,_7) + Block_(1,_7) + Block_(2,_7) + Block_(3,_7) + Block_(4,_7)
 + Block_(5,_7) + Block_(6,_7) + Block_(7,_7) + Block_(8,_7) <= 1
_C19: Block_(0,_8) + Block_(1,_8) + Block_(2,_8) + Block_(3,_8) + Block_(4,_8)
 + Block_(5,_8) + Block_(6,_8) + Block_(7,_8) + Block_(8,_8) <= 1
_C2: Block_(0,_0) + Block_(0,_1) + Block_(0,_10) + Block_(0,_11)
 + Block_(0,_12) + Block_(0,_13) + Block_(0,_14) + Block_(0,_15)
 + Block_(0,_16) + Block_(0,_17) + Block_(0,_18) + Block_(0,_19)
 + Block_(0,_2) + Block_(0,_20) + Block_(0,_21) + Block_(0,_22)
 + Block_(0,_23) + Block_(0,_24) + Block_(0,_25) + Block_(0,_26)
 + Block_(0,_27) + Block_(0,_28) + Block_(0,_29) + Block_(0,_3)
 + Block_(0,_30) + Block_(0,_31) + Block_(0,_32) + Block_(0,_33)
 + Block_(0,_34) + Block_(0,_35) + Block_(0,_36) + Block_(0,_37)
 + Block_(0,_38) + Block_(0,_39) + Block_(0,_4) + Block_(0,_40)
 + Block_(0,_41) + Block_(0,_42) + Block_(0,_43) + Block_(0,_44)
 + Block_(0,_45) + Block_(0,_46) + Block_(0,_47) + Block_(0,_5) + Block_(0,_6)
 + Block_(0,_7) + Block_(0,_8) + Block_(0,_9) <= 2
_C20: Block_(0,_9) + Block_(1,_9) + Block_(2,_9) + Block_(3,_9) + Block_(4,_9)
 + Block_(5,_9) + Block_(6,_9) + Block_(7,_9) + Block_(8,_9) <= 1
_C21: Block_(0,_10) + Block_(1,_10) + Block_(2,_10) + Block_(3,_10)
 + Block_(4,_10) + Block_(5,_10) + Block_(6,_10) + Block_(7,_10)
 + Block_(8,_10) <= 1
_C22: Block_(0,_11) + Block_(1,_11) + Block_(2,_11) + Block_(3,_11)
 + Block_(4,_11) + Block_(5,_11) + Block_(6,_11) + Block_(7,_11)
 + Block_(8,_11) <= 1
_C23: Block_(0,_12) + Block_(1,_12) + Block_(2,_12) + Block_(3,_12)
 + Block_(4,_12) + Block_(5,_12) + Block_(6,_12) + Block_(7,_12)
 + Block_(8,_12) <= 1
_C24: Block_(0,_13) + Block_(1,_13) + Block_(2,_13) + Block_(3,_13)
 + Block_(4,_13) + Block_(5,_13) + Block_(6,_13) + Block_(7,_13)
 + Block_(8,_13) <= 1
_C25: Block_(0,_14) + Block_(1,_14) + Block_(2,_14) + Block_(3,_14)
 + Block_(4,_14) + Block_(5,_14) + Block_(6,_14) + Block_(7,_14)
 + Block_(8,_14) <= 1
_C26: Block_(0,_15) + Block_(1,_15) + Block_(2,_15) + Block_(3,_15)
 + Block_(4,_15) + Block_(5,_15) + Block_(6,_15) + Block_(7,_15)
 + Block_(8,_15) <= 1
_C27: Block_(0,_16) + Block_(1,_16) + Block_(2,_16) + Block_(3,_16)
 + Block_(4,_16) + Block_(5,_16) + Block_(6,_16) + Block_(7,_16)
 + Block_(8,_16) <= 1
_C28: Block_(0,_17) + Block_(1,_17) + Block_(2,_17) + Block_(3,_17)
 + Block_(4,_17) + Block_(5,_17) + Block_(6,_17) + Block_(7,_17)
 + Block_(8,_17) <= 1
_C29: Block_(0,_18) + Block_(1,_18) + Block_(2,_18) + Block_(3,_18)
 + Block_(4,_18) + Block_(5,_18) + Block_(6,_18) + Block_(7,_18)
 + Block_(8,_18) <= 1
_C3: Block_(1,_0) + Block_(1,_1) + Block_(1,_10) + Block_(1,_11)
 + Block_(1,_12) + Block_(1,_13) + Block_(1,_14) + Block_(1,_15)
 + Block_(1,_16) + Block_(1,_17) + Block_(1,_18) + Block_(1,_19)
 + Block_(1,_2) + Block_(1,_20) + Block_(1,_21) + Block_(1,_22)
 + Block_(1,_23) + Block_(1,_24) + Block_(1,_25) + Block_(1,_26)
 + Block_(1,_27) + Block_(1,_28) + Block_(1,_29) + Block_(1,_3)
 + Block_(1,_30) + Block_(1,_31) + Block_(1,_32) + Block_(1,_33)
 + Block_(1,_34) + Block_(1,_35) + Block_(1,_36) + Block_(1,_37)
 + Block_(1,_38) + Block_(1,_39) + Block_(1,_4) + Block_(1,_40)
 + Block_(1,_41) + Block_(1,_42) + Block_(1,_43) + Block_(1,_44)
 + Block_(1,_45) + Block_(1,_46) + Block_(1,_47) + Block_(1,_5) + Block_(1,_6)
 + Block_(1,_7) + Block_(1,_8) + Block_(1,_9) <= 4
_C30: Block_(0,_19) + Block_(1,_19) + Block_(2,_19) + Block_(3,_19)
 + Block_(4,_19) + Block_(5,_19) + Block_(6,_19) + Block_(7,_19)
 + Block_(8,_19) <= 1
_C31: Block_(0,_20) + Block_(1,_20) + Block_(2,_20) + Block_(3,_20)
 + Block_(4,_20) + Block_(5,_20) + Block_(6,_20) + Block_(7,_20)
 + Block_(8,_20) <= 1
_C32: Block_(0,_21) + Block_(1,_21) + Block_(2,_21) + Block_(3,_21)
 + Block_(4,_21) + Block_(5,_21) + Block_(6,_21) + Block_(7,_21)
 + Block_(8,_21) <= 1
_C33: Block_(0,_22) + Block_(1,_22) + Block_(2,_22) + Block_(3,_22)
 + Block_(4,_22) + Block_(5,_22) + Block_(6,_22) + Block_(7,_22)
 + Block_(8,_22) <= 1
_C34: Block_(0,_23) + Block_(1,_23) + Block_(2,_23) + Block_(3,_23)
 + Block_(4,_23) + Block_(5,_23) + Block_(6,_23) + Block_(7,_23)
 + Block_(8,_23) <= 1
_C35: Block_(0,_24) + Block_(1,_24) + Block_(2,_24) + Block_(3,_24)
 + Block_(4,_24) + Block_(5,_24) + Block_(6,_24) + Block_(7,_24)
 + Block_(8,_24) <= 1
_C36: Block_(0,_25) + Block_(1,_25) + Block_(2,_25) + Block_(3,_25)
 + Block_(4,_25) + Block_(5,_25) + Block_(6,_25) + Block_(7,_25)
 + Block_(8,_25) <= 1
_C37: Block_(0,_26) + Block_(1,_26) + Block_(2,_26) + Block_(3,_26)
 + Block_(4,_26) + Block_(5,_26) + Block_(6,_26) + Block_(7,_26)
 + Block_(8,_26) <= 1
_C38: Block_(0,_27) + Block_(1,_27) + Block_(2,_27) + Block_(3,_27)
 + Block_(4,_27) + Block_(5,_27) + Block_(6,_27) + Block_(7,_27)
 + Block_(8,_27) <= 1
_C39: Block_(0,_28) + Block_(1,_28) + Block_(2,_28) + Block_(3,_28)
 + Block_(4,_28) + Block_(5,_28) + Block_(6,_28) + Block_(7,_28)
 + Block_(8,_28) <= 1
_C4: Block_(2,_0) + Block_(2,_1) + Block_(2,_10) + Block_(2,_11)
 + Block_(2,_12) + Block_(2,_13) + Block_(2,_14) + Block_(2,_15)
 + Block_(2,_16) + Block_(2,_17) + Block_(2,_18) + Block_(2,_19)
 + Block_(2,_2) + Block_(2,_20) + Block_(2,_21) + Block_(2,_22)
 + Block_(2,_23) + Block_(2,_24) + Block_(2,_25) + Block_(2,_26)
 + Block_(2,_27) + Block_(2,_28) + Block_(2,_29) + Block_(2,_3)
 + Block_(2,_30) + Block_(2,_31) + Block_(2,_32) + Block_(2,_33)
 + Block_(2,_34) + Block_(2,_35) + Block_(2,_36) + Block_(2,_37)
 + Block_(2,_38) + Block_(2,_39) + Block_(2,_4) + Block_(2,_40)
 + Block_(2,_41) + Block_(2,_42) + Block_(2,_43) + Block_(2,_44)
 + Block_(2,_45) + Block_(2,_46) + Block_(2,_47) + Block_(2,_5) + Block_(2,_6)
 + Block_(2,_7) + Block_(2,_8) + Block_(2,_9) <= 2
_C40: Block_(0,_29) + Block_(1,_29) + Block_(2,_29) + Block_(3,_29)
 + Block_(4,_29) + Block_(5,_29) + Block_(6,_29) + Block_(7,_29)
 + Block_(8,_29) <= 1
_C41: Block_(0,_30) + Block_(1,_30) + Block_(2,_30) + Block_(3,_30)
 + Block_(4,_30) + Block_(5,_30) + Block_(6,_30) + Block_(7,_30)
 + Block_(8,_30) <= 1
_C42: Block_(0,_31) + Block_(1,_31) + Block_(2,_31) + Block_(3,_31)
 + Block_(4,_31) + Block_(5,_31) + Block_(6,_31) + Block_(7,_31)
 + Block_(8,_31) <= 1
_C43: Block_(0,_32) + Block_(1,_32) + Block_(2,_32) + Block_(3,_32)
 + Block_(4,_32) + Block_(5,_32) + Block_(6,_32) + Block_(7,_32)
 + Block_(8,_32) <= 1
_C44: Block_(0,_33) + Block_(1,_33) + Block_(2,_33) + Block_(3,_33)
 + Block_(4,_33) + Block_(5,_33) + Block_(6,_33) + Block_(7,_33)
 + Block_(8,_33) <= 1
_C45: Block_(0,_34) + Block_(1,_34) + Block_(2,_34) + Block_(3,_34)
 + Block_(4,_34) + Block_(5,_34) + Block_(6,_34) + Block_(7,_34)
 + Block_(8,_34) <= 1
_C46: Block_(0,_35) + Block_(1,_35) + Block_(2,_35) + Block_(3,_35)
 + Block_(4,_35) + Block_(5,_35) + Block_(6,_35) + Block_(7,_35)
 + Block_(8,_35) <= 1
_C47: Block_(0,_36) + Block_(1,_36) + Block_(2,_36) + Block_(3,_36)
 + Block_(4,_36) + Block_(5,_36) + Block_(6,_36) + Block_(7,_36)
 + Block_(8,_36) <= 1
_C48: Block_(0,_37) + Block_(1,_37) + Block_(2,_37) + Block_(3,_37)
 + Block_(4,_37) + Block_(5,_37) + Block_(6,_37) + Block_(7,_37)
 + Block_(8,_37) <= 1
_C49: Block_(0,_38) + Block_(1,_38) + Block_(2,_38) + Block_(3,_38)
 + Block_(4,_38) + Block_(5,_38) + Block_(6,_38) + Block_(7,_38)
 + Block_(8,_38) <= 1
_C5: Block_(3,_0) + Block_(3,_1) + Block_(3,_10) + Block_(3,_11)
 + Block_(3,_12) + Block_(3,_13) + Block_(3,_14) + Block_(3,_15)
 + Block_(3,_16) + Block_(3,_17) + Block_(3,_18) + Block_(3,_19)
 + Block_(3,_2) + Block_(3,_20) + Block_(3,_21) + Block_(3,_22)
 + Block_(3,_23) + Block_(3,_24) + Block_(3,_25) + Block_(3,_26)
 + Block_(3,_27) + Block_(3,_28) + Block_(3,_29) + Block_(3,_3)
 + Block_(3,_30) + Block_(3,_31) + Block_(3,_32) + Block_(3,_33)
 + Block_(3,_34) + Block_(3,_35) + Block_(3,_36) + Block_(3,_37)
 + Block_(3,_38) + Block_(3,_39) + Block_(3,_4) + Block_(3,_40)
 + Block_(3,_41) + Block_(3,_42) + Block_(3,_43) + Block_(3,_44)
 + Block_(3,_45) + Block_(3,_46) + Block_(3,_47) + Block_(3,_5) + Block_(3,_6)
 + Block_(3,_7) + Block_(3,_8) + Block_(3,_9) <= 1
_C50: Block_(0,_39) + Block_(1,_39) + Block_(2,_39) + Block_(3,_39)
 + Block_(4,_39) + Block_(5,_39) + Block_(6,_39) + Block_(7,_39)
 + Block_(8,_39) <= 1
_C51: Block_(0,_40) + Block_(1,_40) + Block_(2,_40) + Block_(3,_40)
 + Block_(4,_40) + Block_(5,_40) + Block_(6,_40) + Block_(7,_40)
 + Block_(8,_40) <= 1
_C52: Block_(0,_41) + Block_(1,_41) + Block_(2,_41) + Block_(3,_41)
 + Block_(4,_41) + Block_(5,_41) + Block_(6,_41) + Block_(7,_41)
 + Block_(8,_41) <= 1
_C53: Block_(0,_42) + Block_(1,_42) + Block_(2,_42) + Block_(3,_42)
 + Block_(4,_42) + Block_(5,_42) + Block_(6,_42) + Block_(7,_42)
 + Block_(8,_42) <= 1
_C54: Block_(0,_43) + Block_(1,_43) + Block_(2,_43) + Block_(3,_43)
 + Block_(4,_43) + Block_(5,_43) + Block_(6,_43) + Block_(7,_43)
 + Block_(8,_43) <= 1
_C55: Block_(0,_44) + Block_(1,_44) + Block_(2,_44) + Block_(3,_44)
 + Block_(4,_44) + Block_(5,_44) + Block_(6,_44) + Block_(7,_44)
 + Block_(8,_44) <= 1
_C56: Block_(0,_45) + Block_(1,_45) + Block_(2,_45) + Block_(3,_45)
 + Block_(4,_45) + Block_(5,_45) + Block_(6,_45) + Block_(7,_45)
 + Block_(8,_45) <= 1
_C57: Block_(0,_46) + Block_(1,_46) + Block_(2,_46) + Block_(3,_46)
 + Block_(4,_46) + Block_(5,_46) + Block_(6,_46) + Block_(7,_46)
 + Block_(8,_46) <= 1
_C58: Block_(0,_47) + Block_(1,_47) + Block_(2,_47) + Block_(3,_47)
 + Block_(4,_47) + Block_(5,_47) + Block_(6,_47) + Block_(7,_47)
 + Block_(8,_47) <= 1
_C6: Block_(4,_0) + Block_(4,_1) + Block_(4,_10) + Block_(4,_11)
 + Block_(4,_12) + Block_(4,_13) + Block_(4,_14) + Block_(4,_15)
 + Block_(4,_16) + Block_(4,_17) + Block_(4,_18) + Block_(4,_19)
 + Block_(4,_2) + Block_(4,_20) + Block_(4,_21) + Block_(4,_22)
 + Block_(4,_23) + Block_(4,_24) + Block_(4,_25) + Block_(4,_26)
 + Block_(4,_27) + Block_(4,_28) + Block_(4,_29) + Block_(4,_3)
 + Block_(4,_30) + Block_(4,_31) + Block_(4,_32) + Block_(4,_33)
 + Block_(4,_34) + Block_(4,_35) + Block_(4,_36) + Block_(4,_37)
 + Block_(4,_38) + Block_(4,_39) + Block_(4,_4) + Block_(4,_40)
 + Block_(4,_41) + Block_(4,_42) + Block_(4,_43) + Block_(4,_44)
 + Block_(4,_45) + Block_(4,_46) + Block_(4,_47) + Block_(4,_5) + Block_(4,_6)
 + Block_(4,_7) + Block_(4,_8) + Block_(4,_9) <= 5
_C7: Block_(5,_0) + Block_(5,_1) + Block_(5,_10) + Block_(5,_11)
 + Block_(5,_12) + Block_(5,_13) + Block_(5,_14) + Block_(5,_15)
 + Block_(5,_16) + Block_(5,_17) + Block_(5,_18) + Block_(5,_19)
 + Block_(5,_2) + Block_(5,_20) + Block_(5,_21) + Block_(5,_22)
 + Block_(5,_23) + Block_(5,_24) + Block_(5,_25) + Block_(5,_26)
 + Block_(5,_27) + Block_(5,_28) + Block_(5,_29) + Block_(5,_3)
 + Block_(5,_30) + Block_(5,_31) + Block_(5,_32) + Block_(5,_33)
 + Block_(5,_34) + Block_(5,_35) + Block_(5,_36) + Block_(5,_37)
 + Block_(5,_38) + Block_(5,_39) + Block_(5,_4) + Block_(5,_40)
 + Block_(5,_41) + Block_(5,_42) + Block_(5,_43) + Block_(5,_44)
 + Block_(5,_45) + Block_(5,_46) + Block_(5,_47) + Block_(5,_5) + Block_(5,_6)
 + Block_(5,_7) + Block_(5,_8) + Block_(5,_9) <= 1
_C8: Block_(6,_0) + Block_(6,_1) + Block_(6,_10) + Block_(6,_11)
 + Block_(6,_12) + Block_(6,_13) + Block_(6,_14) + Block_(6,_15)
 + Block_(6,_16) + Block_(6,_17) + Block_(6,_18) + Block_(6,_19)
 + Block_(6,_2) + Block_(6,_20) + Block_(6,_21) + Block_(6,_22)
 + Block_(6,_23) + Block_(6,_24) + Block_(6,_25) + Block_(6,_26)
 + Block_(6,_27) + Block_(6,_28) + Block_(6,_29) + Block_(6,_3)
 + Block_(6,_30) + Block_(6,_31) + Block_(6,_32) + Block_(6,_33)
 + Block_(6,_34) + Block_(6,_35) + Block_(6,_36) + Block_(6,_37)
 + Block_(6,_38) + Block_(6,_39) + Block_(6,_4) + Block_(6,_40)
 + Block_(6,_41) + Block_(6,_42) + Block_(6,_43) + Block_(6,_44)
 + Block_(6,_45) + Block_(6,_46) + Block_(6,_47) + Block_(6,_5) + Block_(6,_6)
 + Block_(6,_7) + Block_(6,_8) + Block_(6,_9) <= 4
_C9: Block_(7,_0) + Block_(7,_1) + Block_(7,_10) + Block_(7,_11)
 + Block_(7,_12) + Block_(7,_13) + Block_(7,_14) + Block_(7,_15)
 + Block_(7,_16) + Block_(7,_17) + Block_(7,_18) + Block_(7,_19)
 + Block_(7,_2) + Block_(7,_20) + Block_(7,_21) + Block_(7,_22)
 + Block_(7,_23) + Block_(7,_24) + Block_(7,_25) + Block_(7,_26)
 + Block_(7,_27) + Block_(7,_28) + Block_(7,_29) + Block_(7,_3)
 + Block_(7,_30) + Block_(7,_31) + Block_(7,_32) + Block_(7,_33)
 + Block_(7,_34) + Block_(7,_35) + Block_(7,_36) + Block_(7,_37)
 + Block_(7,_38) + Block_(7,_39) + Block_(7,_4) + Block_(7,_40)
 + Block_(7,_41) + Block_(7,_42) + Block_(7,_43) + Block_(7,_44)
 + Block_(7,_45) + Block_(7,_46) + Block_(7,_47) + Block_(7,_5) + Block_(7,_6)
 + Block_(7,_7) + Block_(7,_8) + Block_(7,_9) <= 3
Binaries
Block_(0,_0)
Block_(0,_1)
Block_(0,_10)
Block_(0,_11)
Block_(0,_12)
Block_(0,_13)
Block_(0,_14)
Block_(0,_15)
Block_(0,_16)
Block_(0,_17)
Block_(0,_18)
Block_(0,_19)
Block_(0,_2)
Block_(0,_20)
Block_(0,_21)
Block_(0,_22)
Block_(0,_23)
Block_(0,_24)
Block_(0,_25)
Block_(0,_26)
Block_(0,_27)
Block_(0,_28)
Block_(0,_29)
Block_(0,_3)
Block_(0,_30)
Block_(0,_31)
Block_(0,_32)
Block_(0,_33)
Block_(0,_34)
Block_(0,_35)
Block_(0,_36)
Block_(0,_37)
Block_(0,_38)
Block_(0,_39)
Block_(0,_4)
Block_(0,_40)
Block_(0,_41)
Block_(0,_42)
Block_(0,_43)
Block_(0,_44)
Block_(0,_45)
Block_(0,_46)
Block_(0,_47)
Block_(0,_5)
Block_(0,_6)
Block_(0,_7)
Block_(0,_8)
Block_(0,_9)
Block_(1,_0)
Block_(1,_1)
Block_(1,_10)
Block_(1,_11)
Block_(1,_12)
Block_(1,_13)
Block_(1,_14)
Block_(1,_15)
Block_(1,_16)
Block_(1,_17)
Block_(1,_18)
Block_(1,_19)
Block_(1,_2)
Block_(1,_20)
Block_(1,_21)
Block_(1,_22)
Block_(1,_23)
Block_(1,_24)
Block_(1,_25)
Block_(1,_26)
Block_(1,_27)
Block_(1,_28)
Block_(1,_29)
Block_(1,_3)
Block_(1,_30)
Block_(1,_31)
Block_(1,_32)
Block_(1,_33)
Block_(1,_34)
Block_(1,_35)
Block_(1,_36)
Block_(1,_37)
Block_(1,_38)
Block_(1,_39)
Block_(1,_4)
Block_(1,_40)
Block_(1,_41)
Block_(1,_42)
Block_(1,_43)
Block_(1,_44)
Block_(1,_45)
Block_(1,_46)
Block_(1,_47)
Block_(1,_5)
Block_(1,_6)
Block_(1,_7)
Block_(1,_8)
Block_(1,_9)
Block_(2,_0)
Block_(2,_1)
Block_(2,_10)
Block_(2,_11)
Block_(2,_12)
Block_(2,_13)
Block_(2,_14)
Block_(2,_15)
Block_(2,_16)
Block_(2,_17)
Block_(2,_18)
Block_(2,_19)
Block_(2,_2)
Block_(2,_20)
Block_(2,_21)
Block_(2,_22)
Block_(2,_23)
Block_(2,_24)
Block_(2,_25)
Block_(2,_26)
Block_(2,_27)
Block_(2,_28)
Block_(2,_29)
Block_(2,_3)
Block_(2,_30)
Block_(2,_31)
Block_(2,_32)
Block_(2,_33)
Block_(2,_34)
Block_(2,_35)
Block_(2,_36)
Block_(2,_37)
Block_(2,_38)
Block_(2,_39)
Block_(2,_4)
Block_(2,_40)
Block_(2,_41)
Block_(2,_42)
Block_(2,_43)
Block_(2,_44)
Block_(2,_45)
Block_(2,_46)
Block_(2,_47)
Block_(2,_5)
Block_(2,_6)
Block_(2,_7)
Block_(2,_8)
Block_(2,_9)
Block_(3,_0)
Block_(3,_1)
Block_(3,_10)
Block_(3,_11)
Block_(3,_12)
Block_(3,_13)
Block_(3,_14)
Block_(3,_15)
Block_(3,_16)
Block_(3,_17)
Block_(3,_18)
Block_(3,_19)
Block_(3,_2)
Block_(3,_20)
Block_(3,_21)
Block_(3,_22)
Block_(3,_23)
Block_(3,_24)
Block_(3,_25)
Block_(3,_26)
Block_(3,_27)
Block_(3,_28)
Block_(3,_29)
Block_(3,_3)
Block_(3,_30)
Block_(3,_31)
Block_(3,_32)
Block_(3,_33)
Block_(3,_34)
Block_(3,_35)
Block_(3,_36)
Block_(3,_37)
Block_(3,_38)
Block_(3,_39)
Block_(3,_4)
Block_(3,_40)
Block_(3,_41)
Block_(3,_42)
Block_(3,_43)
Block_(3,_44)
Block_(3,_45)
Block_(3,_46)
Block_(3,_47)
Block_(3,_5)
Block_(3,_6)
Block_(3,_7)
Block_(3,_8)
Block_(3,_9)
Block_(4,_0)
Block_(4,_1)
Block_(4,_10)
Block_(4,_11)
Block_(4,_12)
Block_(4,_13)
Block_(4,_14)
Block_(4,_15)
Block_(4,_16)
Block_(4,_17)
Block_(4,_18)
Block_(4,_19)
Block_(4,_2)
Block_(4,_20)
Block_(4,_21)
Block_(4,_22)
Block_(4,_23)
Block_(4,_24)
Block_(4,_25)
Block_(4,_26)
Block_(4,_27)
Block_(4,_28)
Block_(4,_29)
Block_(4,_3)
Block_(4,_30)
Block_(4,_31)
Block_(4,_32)
Block_(4,_33)
Block_(4,_34)
Block_(4,_35)
Block_(4,_36)
Block_(4,_37)
Block_(4,_38)
Block_(4,_39)
Block_(4,_4)
Block_(4,_40)
Block_(4,_41)
Block_(4,_42)
Block_(4,_43)
Block_(4,_44)
Block_(4,_45)
Block_(4,_46)
Block_(4,_47)
Block_(4,_5)
Block_(4,_6)
Block_(4,_7)
Block_(4,_8)
Block_(4,_9)
Block_(5,_0)
Block_(5,_1)
Block_(5,_10)
Block_(5,_11)
Block_(5,_12)
Block_(5,_13)
Block_(5,_14)
Block_(5,_15)
Block_(5,_16)
Block_(5,_17)
Block_(5,_18)
Block_(5,_19)
Block_(5,_2)
Block_(5,_20)
Block_(5,_21)
Block_(5,_22)
Block_(5,_23)
Block_(5,_24)
Block_(5,_25)
Block_(5,_26)
Block_(5,_27)
Block_(5,_28)
Block_(5,_29)
Block_(5,_3)
Block_(5,_30)
Block_(5,_31)
Block_(5,_32)
Block_(5,_33)
Block_(5,_34)
Block_(5,_35)
Block_(5,_36)
Block_(5,_37)
Block_(5,_38)
Block_(5,_39)
Block_(5,_4)
Block_(5,_40)
Block_(5,_41)
Block_(5,_42)
Block_(5,_43)
Block_(5,_44)
Block_(5,_45)
Block_(5,_46)
Block_(5,_47)
Block_(5,_5)
Block_(5,_6)
Block_(5,_7)
Block_(5,_8)
Block_(5,_9)
Block_(6,_0)
Block_(6,_1)
Block_(6,_10)
Block_(6,_11)
Block_(6,_12)
Block_(6,_13)
Block_(6,_14)
Block_(6,_15)
Block_(6,_16)
Block_(6,_17)
Block_(6,_18)
Block_(6,_19)
Block_(6,_2)
Block_(6,_20)
Block_(6,_21)
Block_(6,_22)
Block_(6,_23)
Block_(6,_24)
Block_(6,_25)
Block_(6,_26)
Block_(6,_27)
Block_(6,_28)
Block_(6,_29)
Block_(6,_3)
Block_(6,_30)
Block_(6,_31)
Block_(6,_32)
Block_(6,_33)
Block_(6,_34)
Block_(6,_35)
Block_(6,_36)
Block_(6,_37)
Block_(6,_38)
Block_(6,_39)
Block_(6,_4)
Block_(6,_40)
Block_(6,_41)
Block_(6,_42)
Block_(6,_43)
Block_(6,_44)
Block_(6,_45)
Block_(6,_46)
Block_(6,_47)
Block_(6,_5)
Block_(6,_6)
Block_(6,_7)
Block_(6,_8)
Block_(6,_9)
Block_(7,_0)
Block_(7,_1)
Block_(7,_10)
Block_(7,_11)
Block_(7,_12)
Block_(7,_13)
Block_(7,_14)
Block_(7,_15)
Block_(7,_16)
Block_(7,_17)
Block_(7,_18)
Block_(7,_19)
Block_(7,_2)
Block_(7,_20)
Block_(7,_21)
Block_(7,_22)
Block_(7,_23)
Block_(7,_24)
Block_(7,_25)
Block_(7,_26)
Block_(7,_27)
Block_(7,_28)
Block_(7,_29)
Block_(7,_3)
Block_(7,_30)
Block_(7,_31)
Block_(7,_32)
Block_(7,_33)
Block_(7,_34)
Block_(7,_35)
Block_(7,_36)
Block_(7,_37)
Block_(7,_38)
Block_(7,_39)
Block_(7,_4)
Block_(7,_40)
Block_(7,_41)
Block_(7,_42)
Block_(7,_43)
Block_(7,_44)
Block_(7,_45)
Block_(7,_46)
Block_(7,_47)
Block_(7,_5)
Block_(7,_6)
Block_(7,_7)
Block_(7,_8)
Block_(7,_9)
Block_(8,_0)
Block_(8,_1)
Block_(8,_10)
Block_(8,_11)
Block_(8,_12)
Block_(8,_13)
Block_(8,_14)
Block_(8,_15)
Block_(8,_16)
Block_(8,_17)
Block_(8,_18)
Block_(8,_19)
Block_(8,_2)
Block_(8,_20)
Block_(8,_21)
Block_(8,_22)
Block_(8,_23)
Block_(8,_24)
Block_(8,_25)
Block_(8,_26)
Block_(8,_27)
Block_(8,_28)
Block_(8,_29)
Block_(8,_3)
Block_(8,_30)
Block_(8,_31)
Block_(8,_32)
Block_(8,_33)
Block_(8,_34)
Block_(8,_35)
Block_(8,_36)
Block_(8,_37)
Block_(8,_38)
Block_(8,_39)
Block_(8,_4)
Block_(8,_40)
Block_(8,_41)
Block_(8,_42)
Block_(8,_43)
Block_(8,_44)
Block_(8,_45)
Block_(8,_46)
Block_(8,_47)
Block_(8,_5)
Block_(8,_6)
Block_(8,_7)
Block_(8,_8)
Block_(8,_9)
End
